15 965
525 7 502 7 423 7 314 13
525 7 477 7 387 7 240 9 99 15
528 7 504 7 413 7 254 9 80 11 923 15 769 20
528 7 504 7 413 7 254 9 80 11 923 15 769 20
528 7 504 7 413 7 254 9 80 11 923 15 769 20
525 7 504 7 362 7 209 9 25 11 818 15 619 21
525 7 504 7 362 7 209 9 25 11 818 15 619 21
525 7 504 7 362 7 209 9 25 11 818 15 619 21
525 7 482 7 365 7 212 9 29 11 823 18
525 7 482 7 362 7 118 9 855 11 676 18
528 7 450 7 270 7 67 9 892 11 734 18
525 7 484 7 368 7 123 9 857 11 631 18
525 7 482 7 394 7 212 9 29 11 822 15 623 21
525 7 479 7 355 7 106 9 927 13
535 8 495 8 401 9 236 10 73 14 906 18 773 30
